code/experiments/gr21/gr21_n9.opt.tour
9
0 6 7 5 4 8 2 1 3 
